# SCIP version 3.0.0

# frequency for solving LP at the nodes (-1: never; 0: only root LP)
# [type: int, range: [-1,2147483647], default: 1]
lp/solvefreq = -1

# maximal number of restarts (-1: unlimited)
# [type: int, range: [-1,2147483647], default: -1]
presolving/maxrestarts = 0

# flag to indicate whether detector <connected> is enabled
# [type: bool, range: {TRUE,FALSE}, default: TRUE]
detection/detectors/connected/enabled = TRUE

# flag to indicate whether detector <arrowheur> is enabled
# [type: bool, range: {TRUE,FALSE}, default: TRUE]
detection/detectors/arrowheur/enabled = FALSE

# flag to indicate whether detector <random> is enabled
# [type: bool, range: {TRUE,FALSE}, default: FALSE]
detection/detectors/random/enabled = FALSE

# flag to indicate whether detector <cutpacking> is enabled
# [type: bool, range: {TRUE,FALSE}, default: FALSE]
detection/detectors/staircase/enabled = FALSE

